9
0 6 395 311 159 492 146 102 564
6 0 669 122 1 3 524 115 44
395 669 0 273 375 345 48 257 304
311 122 273 0 443 508 368 635 6
159 1 375 443 0 254 939 594 596
492 3 345 508 254 0 562 1 39
146 524 48 368 939 562 0 115 239
102 115 257 635 594 1 115 0 206
564 44 304 6 596 39 239 206 0